76
14
0 14 17 20 22 23 25 27 28 29 30 31 32 33 34 35 37 46 47 48 49 53 54 55 56 57 59 60 65 66 67 70 71 74
1 15 16 17 18 19 20 23 26 27 29 30 31 33 34 37 38 40 41 45 46 47 48 50 53 54 55 56 58 60 68 69 70 74 75
2 14 16 18 20 22 23 25 28 29 31 33 37 38 40 41 43 45 46 48 49 50 53 54 55 56 57 59 60 64 65 67 68 69 70 71 73 74
3 15 16 17 18 23 29 31 33 34 35 37 38 41 44 45 46 47 48 49 50 53 55 56 57 60 64 65 66 67 69 73
4 16 18 19 22 23 25 27 28 33 34 37 41 44 46 48 50 51 52 53 54 60 65 66 69 74
5 15 16 17 18 20 22 28 29 31 33 34 36 37 38 42 43 45 46 47 48 50 51 52 53 54 56 57 65 66 69 74
6 17 18 19 25 28 30 31 33 36 45 46 48 50 51 54 60 65 66 67 68 69 72
7 14 15 20 21 25 27 31 33 34 35 36 38 41 46 47 48 49 50 52 66 69 70 71
8 14 16 18 19 21 22 24 27 33 35 41 47 52 53 54 55 56 57 60 67 68 69 73 74
9 14 16 17 19 23 25 27 33 35 37 38 40 46 49 50 60 62 63 68 70 74
10 14 24 28 31 33 38 45 47 52 55 59 61 65 70
11 19 25 34 35 39 40 41 46 56 59 73
12 16 21 23 47 54 64 67 70
13 39 55 57 60
